NAME 
ROWS
 N  OBJ
 L  R0      
 E  R1      
 E  R2      
 E  R3      
 E  R4      
 E  R5      
 E  R6      
 E  R7      
 E  R8      
 E  R9      
 E  R10     
COLUMNS
    MARKER    'MARKER'                 'INTORG'
    I0(5)     OBJ       148
    I0(5)     R0        -33
    I0(5)     R1        13
    I0(5)     R2        11
    I0(5)     R4        7
    I0(5)     R10       1
    I1(5)     OBJ       118
    I1(5)     R0        70
    I1(5)     R1        11
    I1(5)     R3        2
    I1(5)     R4        17
    I1(5)     R10       1
    I2(5)     OBJ       -60
    I2(5)     R0        -119
    I2(5)     R1        19
    I2(5)     R3        9
    I2(5)     R4        14
    I2(5)     R10       1
    I3(4)     OBJ       62
    I3(4)     R0        125
    I3(4)     R3        13
    I3(4)     R4        3
    I3(4)     R10       1
    MARKER    'MARKER'                 'INTEND'
    C4(6)     OBJ       -2
    C4(6)     R0        8
    C4(6)     R1        2
    C4(6)     R3        -1
    C4(6)     R4        17
    C4(6)     R5        -1
    C4(6)     R9        12
    C5(6)     OBJ       1
    C5(6)     R0        4
    C5(6)     R1        8
    C5(6)     R4        18
    C5(6)     R5        8
    C5(6)     R6        15
    C5(6)     R7        6
    C6(7)     OBJ       -4
    C6(7)     R0        -6
    C6(7)     R2        19
    C6(7)     R3        19
    C6(7)     R4        2
    C6(7)     R5        15
    C6(7)     R6        5
    C6(7)     R9        16
    C7(8)     OBJ       -4
    C7(8)     R0        -7
    C7(8)     R2        6
    C7(8)     R3        19
    C7(8)     R4        14
    C7(8)     R5        16
    C7(8)     R6        8
    C7(8)     R8        15
    C7(8)     R9        1
    C8(8)     OBJ       -8
    C8(8)     R0        7
    C8(8)     R1        10
    C8(8)     R2        4
    C8(8)     R3        5
    C8(8)     R5        1
    C8(8)     R6        9
    C8(8)     R7        5
    C8(8)     R8        2
    C9(6)     OBJ       -9
    C9(6)     R0        8
    C9(6)     R2        4
    C9(6)     R4        19
    C9(6)     R5        11
    C9(6)     R7        11
    C9(6)     R9        18
    C10(1)    R1        1
    C11(1)    R2        1
    C12(1)    R3        1
    C13(1)    R4        1
    C14(1)    R5        1
    C15(1)    R6        1
    C16(1)    R7        1
    C17(1)    R8        1
    C18(1)    R9        1
    C19(1)    R10       1
RHS
    RHS1      R0        -9.3607021157086677e+01
    RHS1      R1        56
    RHS1      R2        84
    RHS1      R3        90
    RHS1      R4        70
    RHS1      R5        70
    RHS1      R6        58
    RHS1      R7        98
    RHS1      R8        84
    RHS1      R9        71
    RHS1      R10       1
BOUNDS
 UP BND1      I0(5)     1
 UP BND1      I1(5)     1
 UP BND1      I2(5)     1
 UP BND1      I3(4)     1
ENDATA
